60
1 0 4
2 0 5
2 1 2
3 0 10
3 1 6
3 2 4
4 0 9
4 1 10
5 0 7
5 1 1
5 2 8
5 3 4
5 4 4
6 2 3
6 3 9
6 5 5
7 0 6
7 1 3
7 4 7
7 5 10
8 0 9
8 2 3
8 6 10
8 7 2
9 1 5
9 2 10
9 3 3
9 4 7
9 5 7
9 6 1
9 7 7
9 8 6
10 0 1
10 1 6
10 3 1
10 4 8
10 6 6
10 7 2
10 8 8
11 3 2
11 4 1
11 5 1
11 7 5
11 9 10
11 10 9
12 1 1
12 2 6
12 3 8
12 5 1
12 6 6
12 7 9
12 8 6
12 9 9
12 10 7
12 11 9
13 0 3
13 1 2
13 3 4
13 4 5
13 5 3
13 7 6
13 8 5
13 9 5
13 10 4
13 12 1
14 2 7
14 3 6
14 4 2
14 6 7
14 8 2
14 10 10
14 11 1
14 12 7
15 0 5
15 5 7
15 10 7
15 11 5
15 14 4
16 0 5
16 2 4
16 5 4
16 7 2
16 8 8
16 11 3
16 12 7
16 14 10
17 4 1
17 11 2
17 12 3
17 13 5
17 16 5
18 0 3
18 1 2
18 2 5
18 6 3
18 7 4
18 9 2
18 12 1
18 15 1
18 16 6
19 0 9
19 2 3
19 4 2
19 5 9
19 6 2
19 7 2
19 8 9
19 9 4
19 10 2
19 16 8
19 17 9
20 0 8
20 1 7
20 3 10
20 4 10
20 5 9
20 7 4
20 8 10
20 9 2
20 11 5
20 12 7
20 13 3
20 14 10
20 15 9
20 16 7
20 19 9
21 0 2
21 1 7
21 3 10
21 6 5
21 7 8
21 8 7
21 9 1
21 10 10
21 14 4
21 16 2
21 17 9
21 18 9
21 19 9
21 20 6
22 0 2
22 1 4
22 2 6
22 3 3
22 4 1
22 6 9
22 8 4
22 9 2
22 11 6
22 12 3
22 13 9
22 14 9
22 15 8
22 17 9
23 1 5
23 2 3
23 3 4
23 6 9
23 7 3
23 11 4
23 12 3
23 13 4
23 15 3
23 16 6
23 17 1
23 18 10
23 20 9
24 0 8
24 1 1
24 2 9
24 5 5
24 6 9
24 7 10
24 8 2
24 10 7
24 11 1
24 13 5
24 17 4
24 19 6
24 21 4
24 23 6
25 1 1
25 2 9
25 6 1
25 7 4
25 9 1
25 11 10
25 12 9
25 13 10
25 14 5
25 17 3
25 19 2
25 20 8
25 21 3
25 22 6
25 23 6
26 0 1
26 1 3
26 3 5
26 5 5
26 6 7
26 9 10
26 12 8
26 13 5
26 16 2
26 17 4
26 18 10
26 21 5
26 22 8
26 24 4
27 1 7
27 2 5
27 3 10
27 4 6
27 5 7
27 6 5
27 7 10
27 8 9
27 9 2
27 10 3
27 11 1
27 13 2
27 15 9
27 16 7
27 17 4
27 18 5
27 21 9
27 22 3
27 26 8
28 0 4
28 1 7
28 3 6
28 4 8
28 5 10
28 6 4
28 8 4
28 9 5
28 13 2
28 14 10
28 15 2
28 17 10
28 18 4
28 19 5
28 20 8
28 26 6
29 0 7
29 2 1
29 5 4
29 6 6
29 8 5
29 9 9
29 10 10
29 11 5
29 12 7
29 13 10
29 14 2
29 16 9
29 18 4
29 19 9
29 21 8
29 22 4
29 24 2
29 25 2
29 26 2
29 28 10
30 0 4
30 1 4
30 2 5
30 3 8
30 4 8
30 5 5
30 6 1
30 7 6
30 10 3
30 11 3
30 12 5
30 15 10
30 16 4
30 17 4
30 18 5
30 20 3
30 22 7
30 24 7
30 25 1
30 27 1
30 28 10
30 29 10
31 1 2
31 2 2
31 6 2
31 8 2
31 13 6
31 14 5
31 15 3
31 16 5
31 17 9
31 18 9
31 20 1
31 21 1
31 26 5
31 27 8
32 2 9
32 3 9
32 4 8
32 6 2
32 7 3
32 14 5
32 17 4
32 18 7
32 19 3
32 22 6
32 23 3
32 28 3
32 29 8
32 31 10
33 1 8
33 2 7
33 3 10
33 5 5
33 6 5
33 7 8
33 9 4
33 10 3
33 11 6
33 16 6
33 18 4
33 21 5
33 22 10
33 23 10
33 28 6
33 29 1
33 31 8
33 32 4
34 2 10
34 4 4
34 5 10
34 7 4
34 8 6
34 9 8
34 10 8
34 11 10
34 12 6
34 13 3
34 15 4
34 16 1
34 17 3
34 18 7
34 22 6
34 23 4
34 28 6
34 30 3
34 31 4
34 32 9
34 33 8
35 2 7
35 3 8
35 4 2
35 5 2
35 7 2
35 8 2
35 10 7
35 11 8
35 12 7
35 15 6
35 17 1
35 18 4
35 21 8
35 22 10
35 23 9
35 24 6
35 25 1
35 26 1
35 27 10
35 29 7
35 30 2
35 33 2
35 34 8
36 0 3
36 3 4
36 4 9
36 5 4
36 6 9
36 7 4
36 11 9
36 12 9
36 14 7
36 15 8
36 16 5
36 18 9
36 20 2
36 22 3
36 24 6
36 25 5
36 26 10
36 27 8
36 29 10
36 30 9
36 31 10
36 32 3
36 33 1
36 35 5
37 0 1
37 1 7
37 6 1
37 7 3
37 8 2
37 14 1
37 16 6
37 17 5
37 19 7
37 20 10
37 21 7
37 24 1
37 26 7
37 27 4
37 29 9
37 36 9
38 0 8
38 1 6
38 5 4
38 6 7
38 7 5
38 8 3
38 9 8
38 10 2
38 11 2
38 14 2
38 17 6
38 21 1
38 23 8
38 26 7
38 28 3
38 30 8
38 34 7
38 36 8
39 1 1
39 3 7
39 4 5
39 6 1
39 8 4
39 9 1
39 10 7
39 12 3
39 13 2
39 14 9
39 17 3
39 18 8
39 19 7
39 21 7
39 22 4
39 24 6
39 25 9
39 27 4
39 29 5
39 30 4
39 31 8
39 32 8
39 35 9
39 36 5
39 37 6
40 0 4
40 3 6
40 5 7
40 9 10
40 12 2
40 14 10
40 15 5
40 17 8
40 18 5
40 20 1
40 21 9
40 22 1
40 23 10
40 24 7
40 25 5
40 26 1
40 28 2
40 34 1
40 36 7
40 38 1
41 0 9
41 1 2
41 3 7
41 5 10
41 10 1
41 11 5
41 12 1
41 16 9
41 19 3
41 22 8
41 24 3
41 26 3
41 27 9
41 30 6
41 31 8
41 33 6
41 34 10
41 35 7
41 36 4
41 37 7
41 38 7
41 39 8
42 0 7
42 4 6
42 6 3
42 11 9
42 14 3
42 15 6
42 16 6
42 17 6
42 19 7
42 21 5
42 23 3
42 24 7
42 27 6
42 28 7
42 31 6
42 32 2
42 36 9
42 37 5
42 38 4
42 41 10
43 0 6
43 2 2
43 5 7
43 7 9
43 8 7
43 10 9
43 12 2
43 14 1
43 16 7
43 17 7
43 18 1
43 21 1
43 22 7
43 23 3
43 24 2
43 25 10
43 27 4
43 28 7
43 29 9
43 32 7
43 34 9
43 35 3
43 36 5
43 38 5
43 39 10
43 40 1
43 41 4
44 0 9
44 1 5
44 2 1
44 3 3
44 4 3
44 6 4
44 9 1
44 10 10
44 14 2
44 16 1
44 18 5
44 19 5
44 21 9
44 23 10
44 24 2
44 26 9
44 27 1
44 29 6
44 30 4
44 31 9
44 33 6
44 34 7
44 35 5
44 39 8
44 41 5
45 3 1
45 6 2
45 8 3
45 9 4
45 11 1
45 15 5
45 16 4
45 18 2
45 21 6
45 22 2
45 23 10
45 27 2
45 28 4
45 29 3
45 30 6
45 32 2
45 34 4
45 35 6
45 36 2
45 40 6
45 42 9
45 43 10
45 44 6
46 0 1
46 1 5
46 2 10
46 3 7
46 4 6
46 5 9
46 6 1
46 7 10
46 8 4
46 9 8
46 11 3
46 12 1
46 13 6
46 14 10
46 15 2
46 16 1
46 17 2
46 19 4
46 21 7
46 23 8
46 24 8
46 25 6
46 29 7
46 32 8
46 33 6
46 34 4
46 37 10
46 40 3
46 41 4
46 42 10
46 43 5
46 44 10
46 45 8
47 4 9
47 5 9
47 7 6
47 8 9
47 9 4
47 10 2
47 13 4
47 15 4
47 16 7
47 17 10
47 18 9
47 19 8
47 22 9
47 23 10
47 24 10
47 25 7
47 26 7
47 27 6
47 28 8
47 31 4
47 32 6
47 34 5
47 35 6
47 36 3
47 37 10
47 39 9
47 40 7
47 44 3
47 45 8
47 46 6
48 1 5
48 3 8
48 7 1
48 10 6
48 11 8
48 12 2
48 13 8
48 14 7
48 15 1
48 16 8
48 17 9
48 18 2
48 20 1
48 23 4
48 24 1
48 26 2
48 27 1
48 30 6
48 34 9
48 37 7
48 41 9
48 42 4
48 43 4
48 44 6
48 46 5
48 47 9
49 0 6
49 1 8
49 2 1
49 3 7
49 4 9
49 5 7
49 7 10
49 11 5
49 12 5
49 14 4
49 16 9
49 17 5
49 20 9
49 22 8
49 23 4
49 24 10
49 25 4
49 26 1
49 30 9
49 31 5
49 33 5
49 34 8
49 37 10
49 38 3
49 40 7
49 41 2
49 42 7
49 43 8
49 45 6
49 46 8
50 0 4
50 6 9
50 7 6
50 8 4
50 9 10
50 11 2
50 16 1
50 17 3
50 18 1
50 19 4
50 21 10
50 23 4
50 25 6
50 26 1
50 27 3
50 29 6
50 30 7
50 34 1
50 35 9
50 36 8
50 37 7
50 39 2
50 44 3
50 45 5
50 46 2
50 47 1
51 1 4
51 2 5
51 4 6
51 5 6
51 6 10
51 7 2
51 10 2
51 12 10
51 13 9
51 15 7
51 16 2
51 17 4
51 19 1
51 26 1
51 28 9
51 29 10
51 33 9
51 34 7
51 35 9
51 37 4
51 41 6
51 42 6
51 43 7
51 44 7
51 46 9
51 47 3
51 49 8
51 50 5
52 1 7
52 2 7
52 6 8
52 7 6
52 8 9
52 9 4
52 10 1
52 11 10
52 12 6
52 13 5
52 14 8
52 17 7
52 19 8
52 20 2
52 22 10
52 23 1
52 26 9
52 29 7
52 31 6
52 33 3
52 34 2
52 35 1
52 36 1
52 40 7
52 42 3
52 43 2
52 44 9
52 45 5
52 48 1
52 50 10
52 51 10
53 0 8
53 2 7
53 4 1
53 6 7
53 7 5
53 8 7
53 9 9
53 11 4
53 12 9
53 14 8
53 15 9
53 17 1
53 18 1
53 19 2
53 20 4
53 22 9
53 23 4
53 26 1
53 27 4
53 28 3
53 29 8
53 31 8
53 35 9
53 39 9
53 40 10
53 41 5
53 42 7
53 43 8
53 44 1
53 46 4
53 47 2
53 48 6
53 49 4
53 51 10
53 52 5
54 0 1
54 1 4
54 3 3
54 5 1
54 6 4
54 9 10
54 11 1
54 13 1
54 14 6
54 16 9
54 17 9
54 18 4
54 22 8
54 23 5
54 24 8
54 25 8
54 26 10
54 32 10
54 33 10
54 34 5
54 35 10
54 36 8
54 38 1
54 40 6
54 41 4
54 42 6
54 43 8
54 44 7
54 45 5
54 46 9
54 47 1
54 49 6
54 51 7
54 53 9
55 1 6
55 2 8
55 5 6
55 6 8
55 7 3
55 8 7
55 9 5
55 10 6
55 11 8
55 12 10
55 13 3
55 18 10
55 22 7
55 23 6
55 25 5
55 26 2
55 27 5
55 28 5
55 30 1
55 32 8
55 34 1
55 35 5
55 37 1
55 38 10
55 39 8
55 40 4
55 41 10
55 42 7
55 44 9
55 45 2
55 46 7
55 47 8
55 50 3
55 51 3
56 3 7
56 6 6
56 7 4
56 8 7
56 10 6
56 11 1
56 12 10
56 13 8
56 16 4
56 18 9
56 19 6
56 21 1
56 22 10
56 24 6
56 25 3
56 26 3
56 29 4
56 35 10
56 36 6
56 37 10
56 42 1
56 43 2
56 44 9
56 45 1
56 49 2
56 50 7
56 51 6
56 55 7
57 1 4
57 2 2
57 3 3
57 6 6
57 7 3
57 8 6
57 10 6
57 11 7
57 12 7
57 15 1
57 17 3
57 20 1
57 21 2
57 22 1
57 24 10
57 27 6
57 28 7
57 30 2
57 32 8
57 33 7
57 34 10
57 35 8
57 36 9
57 43 8
57 44 10
57 45 2
57 46 10
57 47 9
57 48 9
57 50 3
57 52 7
57 53 9
57 56 4
58 0 8
58 1 5
58 5 7
58 6 5
58 8 1
58 10 3
58 11 9
58 12 9
58 13 1
58 14 9
58 15 3
58 16 6
58 17 1
58 19 9
58 20 10
58 22 5
58 25 3
58 26 3
58 28 10
58 29 6
58 31 6
58 33 2
58 34 10
58 35 8
58 36 3
58 38 7
58 40 5
58 41 4
58 42 9
58 43 2
58 44 4
58 46 3
58 47 4
58 49 3
58 50 6
58 51 6
58 56 7
59 0 8
59 1 6
59 7 4
59 10 3
59 11 2
59 12 10
59 13 10
59 14 5
59 16 4
59 17 9
59 18 7
59 22 6
59 25 6
59 26 5
59 27 4
59 28 8
59 29 6
59 32 8
59 42 6
59 48 2
59 49 2
59 50 1
59 51 4
59 55 5
59 56 9
59 57 5
59 58 3
